Gurobi 12.0.3:   lim:time = 2000
Set parameter LogToConsole to value 1
  tech:outlev = 1
Set parameter InfUnbdInfo to value 1
Gurobi Optimizer version 12.0.3 build v12.0.3rc0 (win64 - Windows 11+.0 (26200.2))

CPU model: 12th Gen Intel(R) Core(TM) i7-12700, instruction set [SSE2|AVX|AVX2]
Thread count: 12 physical cores, 20 logical processors, using up to 20 threads

Non-default parameters:
TimeLimit  2000
InfUnbdInfo  1

Optimize a model with 145460 rows, 45712 columns and 942488 nonzeros
Model fingerprint: 0x5059fdb7
Model has 27720 quadratic constraints
Model has 3136 general nonlinear constraints (6496 nonlinear terms)
Variable types: 21728 continuous, 23984 integer (0 binary)
Coefficient statistics:
  Matrix range     [1e+00, 1e+06]
  QMatrix range    [1e+00, 1e+00]
  QLMatrix range   [1e+00, 2e+01]
  Objective range  [3e+01, 5e+02]
  Bounds range     [1e+00, 1e+06]
  RHS range        [1e+00, 1e+06]
Presolve removed 57876 rows and 12488 columns (presolve time = 5s)...
Presolve removed 57876 rows and 12488 columns (presolve time = 12s)...
Presolve removed 57876 rows and 12488 columns (presolve time = 15s)...
Presolve model has 3136 nlconstr
Added 3584 variables to disaggregate expressions.
Presolve removed 33236 rows and 12488 columns
Presolve time: 17.01s
Presolved: 184296 rows, 61673 columns, 1027601 nonzeros
Presolved model has 6160 SOS constraint(s)
Presolved model has 15400 bilinear constraint(s)

Solving non-convex MIQCP

Variable types: 43457 continuous, 18216 integer (17824 binary)

Deterministic concurrent LP optimizer: primal simplex, dual simplex, and barrier
Showing barrier log only...

Root barrier log...

Ordering time: 0.14s

Barrier statistics:
 Free vars  : 120
 AA' NZ     : 3.893e+05
 Factor NZ  : 1.006e+06 (roughly 40 MB of memory)
 Factor Ops : 2.184e+08 (less than 1 second per iteration)
 Threads    : 10

                  Objective                Residual
Iter       Primal          Dual         Primal    Dual     Compl     Time
   0  -7.10914327e+09 -0.00000000e+00  4.27e+04 2.05e+04  1.61e+06    49s
   1  -4.46599736e+09  1.47283886e+07  2.54e+04 2.05e+04  1.09e+06    49s
   2  -1.24934188e+09  2.32916614e+07  4.55e+03 1.35e+04  6.37e+05    49s
   3  -6.57540975e+08  3.73445614e+06  1.06e+03 3.18e+03  1.60e+05    50s

Barrier performed 3 iterations in 49.67 seconds (23.68 work units)
Barrier solve interrupted - model solved by another algorithm

Concurrent spin time: 1.34s (can be avoided by choosing Method=3)

Solved with dual simplex

Root relaxation: objective 9.400000e+01, 5124 iterations, 3.31 seconds (1.15 work units)
Total elapsed time = 49.70s (DegenMoves)
Total elapsed time = 51.24s (DegenMoves)

    Nodes    |    Current Node    |     Objective Bounds      |     Work
 Expl Unexpl |  Obj  Depth IntInf | Incumbent    BestBd   Gap | It/Node Time

     0     0   94.00000    0  506          -   94.00000      -     -   57s
     0     0   94.00000    0  579          -   94.00000      -     -  116s
     0     0   94.00000    0  727          -   94.00000      -     -  172s
     0     0   94.00000    0  601          -   94.00000      -     -  173s
     0     0   94.00000    0  610          -   94.00000      -     -  174s
     0     0   94.00000    0  535          -   94.00000      -     -  174s
     0     0   94.00000    0  535          -   94.00000      -     -  177s
     0     0   94.00000    0  630          -   94.00000      -     -  207s
     0     0   94.00000    0  629          -   94.00000      -     -  209s
     0     0   94.00000    0 1192          -   94.00000      -     -  228s
     0     0   94.00000    0 1186          -   94.00000      -     -  229s
     0     0   94.00000    0 1471          -   94.00000      -     -  252s
     0     0   94.00000    0 1260          -   94.00000      -     -  253s
     0     0   94.00000    0 1112          -   94.00000      -     -  259s
     0     0   94.00000    0 1114          -   94.00000      -     -  259s
     0     0  127.75052    0 1358          -  127.75052      -     -  348s
     0     0  127.75052    0 1357          -  127.75052      -     -  360s
     0     0  127.75052    0 1140          -  127.75052      -     -  366s
     0     0  127.75052    0 1124          -  127.75052      -     -  367s
     0     0  128.10018    0 1429          -  128.10018      -     -  373s
     0     0  156.00000    0 1792          -  156.00000      -     -  443s
     0     0  156.00000    0 1396          -  156.00000      -     -  475s
     0     0  156.00000    0 1562          -  156.00000      -     -  478s
     0     0  156.00000    0 1572          -  156.00000      -     -  479s
     0     0  156.00000    0 1535          -  156.00000      -     -  494s
     0     0  156.00000    0 1323          -  156.00000      -     -  496s
     0     0  156.00000    0 1323          -  156.00000      -     -  496s
     0     0  156.00000    0 1275          -  156.00000      -     -  519s
     0     0  156.00000    0 1277          -  156.00000      -     -  519s
     0     0  156.00000    0 1149          -  156.00000      -     -  547s
     0     0  156.00000    0 1202          -  156.00000      -     -  548s
     0     0  156.00000    0 1233          -  156.00000      -     -  551s
     0     0  156.00000    0  878          -  156.00000      -     -  558s
     0     0  156.00000    0  882          -  156.00000      -     -  559s
     0     0  156.00000    0  881          -  156.00000      -     -  559s
     0     0  156.00000    0  897          -  156.00000      -     -  560s
     0     0  156.00000    0  871          -  156.00000      -     -  564s
     0     0  156.00000    0  871          -  156.00000      -     -  565s
     0     0  156.00000    0  869          -  156.00000      -     -  568s
     0     0  156.00000    0  841          -  156.00000      -     -  573s
     0     0  156.00000    0  849          -  156.00000      -     -  586s
     0     2  156.00000    0  849          -  156.00000      -     -  608s
     1     5  156.00000    1  943          -  156.00000      - 10509  610s
     3     4 infeasible    2               -  156.00000      -  4983  627s
     7     8  156.00000    3  930          -  156.00000      -  3129  630s
    11    14  156.00000    4 1031          -  156.00000      -  2646  638s
    19    14 infeasible    5               -  156.00000      -  2422  642s
    31    52  156.00000    6  978          -  156.00000      -  2344  658s
    75    80 infeasible   11               -  156.00000      -  1325  675s
   117   109 infeasible   10               -  156.00000      -  1228  703s
   175   199 infeasible    9               -  156.00000      -  1320  742s
   288   429  156.00000   15  946          -  156.00000      -  1042  814s
   586   597  156.00000   39  886          -  156.00000      -   771  914s
   800   905  156.00000   42 1550          -  156.00000      -   756 1073s
  1207  1324 infeasible   57               -  156.00000      -   784 1364s
  1838  1828  156.00000  103 1244          -  156.00000      -   813 1602s
  2557  1829  156.00000   18 6716          -  156.00000      -   754 1622s
  2559  1830  602.66667  126  203          -  156.00000      -   753 1639s
  2560  1831  156.00000   18  249          -  156.00000      -   753 1651s
  2561  1832  156.00000   36  280          -  156.00000      -   753 1667s
  2562  1832  156.00000  130 1069          -  156.00000      -   752 1679s
  2563  1833  156.00000  129  821          -  156.00000      -   752 1705s
  2565  1834  156.00000  104  909          -  156.00000      -   751 1714s
  2566  1835  156.00000   18  753          -  156.00000      -   751 1716s
  2567  1836  281.33411   74  688          -  156.00000      -   751 1743s
  2568  1836  156.00000   43  694          -  156.00000      -   750 1747s
  2569  1837  602.66667   63  760          -  156.00000      -   750 1773s
  2570  1838  156.00000   19  792          -  156.00000      -   750 1776s
  2571  1838  156.00000  190  864          -  156.00000      -   750 1800s
  2572  1839  156.00000   82  955          -  156.00000      -   749 1806s
  2573  1840  469.00000   31  848          -  156.00000      -   749 1825s
  2575  1841  156.00000   45  684          -  156.00000      -   748 1834s
  2576  1842  156.00000  114  686          -  156.00000      -   748 1837s
  2577  1842  469.00000  113  616          -  156.00000      -   748 1850s
  2579  1844  156.00000  194  836          -  156.00000      -   747 1861s
  2580  1844  604.20000   29  836          -  156.00000      -   747 1880s
  2581  1845  156.00000   34  836          -  156.00000      -   747 1936s

Cutting planes:
  Gomory: 9
  Cover: 155
  Implied bound: 11
  Projected implied bound: 10
  Clique: 79
  MIR: 52
  Mixing: 2
  Flow cover: 652
  GUB cover: 109
  Zero half: 97
  RLT: 376
  Relax-and-lift: 25
  BQP: 6

Explored 2582 nodes (2333230 simplex iterations) in 2000.29 seconds (850.72 work units)
Thread count was 20 (of 20 available processors)

Solution count 0

Time limit reached
Best objective -, best bound 1.560000000000e+02, gap -

AMPL MP initial flat model has 39440 variables (168 integer, 23760 binary);
Objectives: 1 linear; 
Constraints:  142324 linear; 33992 quadratic;

AMPL MP final model has 45712 variables (280 integer, 23760 binary);
Objectives: 1 linear; 
Constraints:  145460 linear; 33992 quadratic;


Gurobi 12.0.3: time limit, without a feasible solution
2.33323e+06 simplex iterations
2582 branching nodes
lp, wp, hp: begin
1: 10.000000 8.000000 14.500000
2: 10.000000 8.000000 14.500000
3: 10.000000 8.000000 14.500000
4: 10.000000 8.000000 14.500000
5: 16.000000 10.000000 3.500000
6: 16.000000 10.000000 3.500000
7: 16.000000 10.000000 3.500000
8: 16.000000 10.000000 3.500000
9: 16.000000 10.000000 3.500000
10: 16.000000 10.000000 3.500000
11: 16.000000 10.000000 3.500000
12: 16.000000 10.000000 3.500000
13: 16.000000 10.000000 3.500000
14: 16.000000 10.000000 3.500000
15: 16.000000 10.000000 3.500000
16: 16.000000 10.000000 3.500000
17: 10.000000 8.000000 15.000000
18: 10.000000 8.000000 15.000000
19: 12.000000 7.000000 20.000000
20: 12.000000 7.000000 20.000000
21: 12.000000 7.000000 20.000000
22: 12.000000 7.000000 20.000000
23: 12.000000 7.000000 20.000000
24: 12.000000 7.000000 20.000000
25: 12.000000 7.000000 20.000000
26: 12.000000 7.000000 20.000000
27: 12.000000 7.000000 20.000000
28: 12.000000 7.000000 20.000000
29: 12.000000 7.000000 20.000000
30: 12.000000 7.000000 20.000000
31: 10.000000 8.000000 15.000000
32: 10.000000 8.000000 15.000000
33: 12.000000 7.000000 20.000000
34: 12.000000 7.000000 20.000000
35: 12.000000 7.000000 20.000000
36: 12.000000 7.000000 20.000000
37: 12.000000 7.000000 20.000000
38: 12.000000 7.000000 20.000000
39: 12.000000 7.000000 20.000000
40: 12.000000 7.000000 20.000000
41: 12.000000 7.000000 20.000000
42: 12.000000 7.000000 20.000000
43: 12.000000 7.000000 20.000000
44: 12.000000 7.000000 20.000000
45: 12.000000 7.000000 20.000000
46: 12.000000 7.000000 20.000000
47: 12.000000 7.000000 20.000000
48: 12.000000 7.000000 20.000000
49: 12.000000 7.000000 20.000000
50: 12.000000 7.000000 20.000000
51: 12.000000 7.000000 20.000000
52: 12.000000 7.000000 20.000000
53: 12.000000 7.000000 20.000000
54: 12.000000 7.000000 20.000000
55: 12.000000 7.000000 20.000000
56: 12.000000 7.000000 20.000000
lp, wp, hp: end
LB, WB, HB: begin
1: 28.000000 15.000000 15.000000
2: 28.000000 15.000000 15.000000
3: 28.000000 15.000000 15.000000
4: 28.000000 15.000000 15.000000
5: 28.000000 15.000000 15.000000
6: 28.000000 15.000000 15.000000
7: 28.000000 15.000000 15.000000
8: 28.000000 15.000000 15.000000
9: 28.000000 15.000000 15.000000
10: 28.000000 15.000000 15.000000
11: 42.000000 32.000000 26.000000
12: 42.000000 32.000000 26.000000
13: 42.000000 32.000000 26.000000
14: 42.000000 32.000000 26.000000
15: 42.000000 32.000000 26.000000
16: 42.000000 32.000000 26.000000
17: 42.000000 32.000000 26.000000
18: 42.000000 32.000000 26.000000
19: 42.000000 32.000000 26.000000
20: 42.000000 32.000000 26.000000
21: 45.700000 45.700000 40.600000
22: 45.700000 45.700000 40.600000
23: 45.700000 45.700000 40.600000
24: 45.700000 45.700000 40.600000
25: 45.700000 45.700000 40.600000
26: 45.700000 45.700000 40.600000
27: 45.700000 45.700000 40.600000
28: 45.700000 45.700000 40.600000
29: 45.700000 45.700000 40.600000
30: 45.700000 45.700000 40.600000
31: 61.000000 46.000000 61.000000
32: 61.000000 46.000000 61.000000
33: 61.000000 46.000000 61.000000
34: 61.000000 46.000000 61.000000
35: 61.000000 46.000000 61.000000
36: 61.000000 46.000000 61.000000
37: 61.000000 46.000000 61.000000
38: 61.000000 46.000000 61.000000
39: 61.000000 46.000000 61.000000
40: 61.000000 46.000000 61.000000
LB, WB, HB: end
l_px, l_py, w_px, w_py: begin
1: 0 0 0 0
2: 0 0 0 0
3: 0 0 0 0
4: 0 0 0 0
5: 0 0 0 0
6: 0 0 0 0
7: 0 0 0 0
8: 0 0 0 0
9: 0 0 0 0
10: 0 0 0 0
11: 0 0 0 0
12: 0 0 0 0
13: 0 0 0 0
14: 0 0 0 0
15: 0 0 0 0
16: 0 0 0 0
17: 0 0 0 0
18: 0 0 0 0
19: 0 0 0 0
20: 0 0 0 0
21: 0 0 0 0
22: 0 0 0 0
23: 0 0 0 0
24: 0 0 0 0
25: 0 0 0 0
26: 0 0 0 0
27: 0 0 0 0
28: 0 0 0 0
29: 0 0 0 0
30: 0 0 0 0
31: 0 0 0 0
32: 0 0 0 0
33: 0 0 0 0
34: 0 0 0 0
35: 0 0 0 0
36: 0 0 0 0
37: 0 0 0 0
38: 0 0 0 0
39: 0 0 0 0
40: 0 0 0 0
41: 0 0 0 0
42: 0 0 0 0
43: 0 0 0 0
44: 0 0 0 0
45: 0 0 0 0
46: 0 0 0 0
47: 0 0 0 0
48: 0 0 0 0
49: 0 0 0 0
50: 0 0 0 0
51: 0 0 0 0
52: 0 0 0 0
53: 0 0 0 0
54: 0 0 0 0
55: 0 0 0 0
56: 0 0 0 0
l_px, l_py, w_px, w_py: end
xp, yp, zp, on_floor: begin
1: 0.000000 0.000000 0.000000 0
2: 0.000000 0.000000 0.000000 0
3: 0.000000 0.000000 0.000000 0
4: 0.000000 0.000000 0.000000 0
5: 0.000000 0.000000 0.000000 0
6: 0.000000 0.000000 0.000000 0
7: 0.000000 0.000000 0.000000 0
8: 0.000000 0.000000 0.000000 0
9: 0.000000 0.000000 0.000000 0
10: 0.000000 0.000000 0.000000 0
11: 0.000000 0.000000 0.000000 0
12: 0.000000 0.000000 0.000000 0
13: 0.000000 0.000000 0.000000 0
14: 0.000000 0.000000 0.000000 0
15: 0.000000 0.000000 0.000000 0
16: 0.000000 0.000000 0.000000 0
17: 0.000000 0.000000 0.000000 0
18: 0.000000 0.000000 0.000000 0
19: 0.000000 0.000000 0.000000 0
20: 0.000000 0.000000 0.000000 0
21: 0.000000 0.000000 0.000000 0
22: 0.000000 0.000000 0.000000 0
23: 0.000000 0.000000 0.000000 0
24: 0.000000 0.000000 0.000000 0
25: 0.000000 0.000000 0.000000 0
26: 0.000000 0.000000 0.000000 0
27: 0.000000 0.000000 0.000000 0
28: 0.000000 0.000000 0.000000 0
29: 0.000000 0.000000 0.000000 0
30: 0.000000 0.000000 0.000000 0
31: 0.000000 0.000000 0.000000 0
32: 0.000000 0.000000 0.000000 0
33: 0.000000 0.000000 0.000000 0
34: 0.000000 0.000000 0.000000 0
35: 0.000000 0.000000 0.000000 0
36: 0.000000 0.000000 0.000000 0
37: 0.000000 0.000000 0.000000 0
38: 0.000000 0.000000 0.000000 0
39: 0.000000 0.000000 0.000000 0
40: 0.000000 0.000000 0.000000 0
41: 0.000000 0.000000 0.000000 0
42: 0.000000 0.000000 0.000000 0
43: 0.000000 0.000000 0.000000 0
44: 0.000000 0.000000 0.000000 0
45: 0.000000 0.000000 0.000000 0
46: 0.000000 0.000000 0.000000 0
47: 0.000000 0.000000 0.000000 0
48: 0.000000 0.000000 0.000000 0
49: 0.000000 0.000000 0.000000 0
50: 0.000000 0.000000 0.000000 0
51: 0.000000 0.000000 0.000000 0
52: 0.000000 0.000000 0.000000 0
53: 0.000000 0.000000 0.000000 0
54: 0.000000 0.000000 0.000000 0
55: 0.000000 0.000000 0.000000 0
56: 0.000000 0.000000 0.000000 0
xp, yp, zp, on_floor: end
product ->carton: begin
product ->carton: end
